config:eval_tsp="2022-12-08 19:27:08"
config:arch=arch5
config:num_train_worker=3
config:num_sample_worker=1
config:sample_type=khop2
config:root_path=/nvme/graph-learning-copy/samgraph/
config:dataset=mag240m-homo
config:pipeline=False
config:cache_policy=coll_cache_asymm_link
config:cache_percentage=0.01
config:num_epoch=4
config:batch_size=8000
config:num_hidden=256
config:max_sampling_jobs=1
config:max_copying_jobs=1
config:barriered_epoch=1
config:presample_epoch=2
config:omp_thread_num=13
config:unsupervised=False
config:amp=True
config:rolling=0
config:fanout=[25, 10]
config:lr=0.003
config:dropout=0.5
config:single_gpu=False
config:max_num_step=100000
config:validate_configs=False
config:report_acc=0
config:dataset_path=/nvme/graph-learning-copy/samgraph/mag240m-homo
config:torch_thread_num=13
config:train_workers=['cuda:0', 'cuda:1', 'cuda:2']
config:sample_workers=['cuda:3']
config:num_fanout=2
config:num_layer=2
config:_run_mode=RunMode.FGNN
config:_log_level=warn
config:_profile_level=3
config:_empty_feat=25
config:_arch=5
config:_sample_type=5
config:_cache_policy=13
test_result:init:input_scale_factor=1.1
0 :  {link #0 : 1}, {link #1 : 2},
1 :  {link #0 : 2}, {link #1 : 0},
2 :  {link #0 : 0}, {link #1 : 1},
0 :  {link #0 : 1}, {link #1 : 2},
1 :  {link #0 : 2}, {link #1 : 0},
2 :  {link #0 : 0}, {link #1 : 1},
0 :  {link #0 : 1}, {link #1 : 2},
1 :  {link #0 : 2}, {link #1 : 0},
2 :  {link #0 : 0}, {link #1 : 1},
Set parameter WLSAccessID
Set parameter WLSSecret
Set parameter LicenseID
Set parameter TimeLimit to value 200
Set parameter MIPGap to value 0.05
Set parameter GomoryPasses to value 0
Set parameter Aggregate to value 0
Set parameter LogFile to value "cppsolver.log"
Set parameter Threads to value 26
Academic license - for non-commercial use only - registered to xiaoniu.sxn@sjtu.edu.cn
Gurobi Optimizer version 9.5.1 build v9.5.1rc2 (linux64)
Thread count: 40 physical cores, 80 logical processors, using up to 26 threads
Academic license - for non-commercial use only - registered to xiaoniu.sxn@sjtu.edu.cn
Optimize a model with 21267 rows, 10124 columns and 63771 nonzeros
Model fingerprint: 0xaa88d5ea
Variable types: 4 continuous, 10120 integer (10120 binary)
Coefficient statistics:
  Matrix range     [9e-04, 2e+02]
  Objective range  [1e+00, 1e+00]
  Bounds range     [1e+00, 1e+00]
  RHS range        [1e+00, 7e+01]
Found heuristic solution: objective 3260.6044149
Presolve removed 12146 rows and 0 columns
Presolve time: 0.12s
Presolved: 9121 rows, 10124 columns, 37457 nonzeros
Found heuristic solution: objective 3260.6043874
Variable types: 4 continuous, 10120 integer (10120 binary)

Root relaxation: objective 6.052746e+02, 8296 iterations, 0.21 seconds (0.12 work units)

    Nodes    |    Current Node    |     Objective Bounds      |     Work
 Expl Unexpl |  Obj  Depth IntInf | Incumbent    BestBd   Gap | It/Node Time

     0     0  605.27464    0   14 3260.60439  605.27464  81.4%     -    0s
H    0     0                     611.0017397  605.27464  0.94%     -    1s

Explored 1 nodes (10415 simplex iterations) in 1.04 seconds (0.49 work units)
Thread count was 26 (of 80 available processors)

Solution count 3: 611.002 3260.6 3260.6 

Optimal solution found (tolerance 5.00e-02)
Best objective 6.110017397385e+02, best bound 6.052746369282e+02, gap 0.9373%
coll_cache:optimal_local_rate=0.265147,0.260354,0.327022,
coll_cache:optimal_remote_rate=0.587376,0.592169,0.525501,
coll_cache:optimal_cpu_rate=0.147477,0.147477,0.147477,
z=611.002
test_result:init:feat_nbytes=375030526464
test_result:init:cache_nbytes=3783413760
test_result:init:feat_nbytes=375030526464
test_result:init:cache_nbytes=3785149440
test_result:init:feat_nbytes=375030526464
test_result:init:cache_nbytes=3777386496
0 :  {link #0 : 1}, {link #1 : 2},
1 :  {link #0 : 2}, {link #1 : 0},
2 :  {link #0 : 0}, {link #1 : 1},
0 :  {link #0 : 1}, {link #1 : 2},
1 :  {link #0 : 2}, {link #1 : 0},
2 :  {link #0 : 0}, {link #1 : 1},
0 :  {link #0 : 1}, {link #1 : 2},
1 :  {link #0 : 2}, {link #1 : 0},
2 :  {link #0 : 0}, {link #1 : 1},
test_result:init:cache_nbytes=0
test_result:init:cache_nbytes=0
test_result:init:cache_nbytes=0
[Train  Worker 1/3] Started with PID 181032(Tesla V100-SXM2-16GB)
[Train  Worker 1] run train for 4 epochs with 141 steps
[Train  Worker 1] Avg Epoch Time 2.1328 | Train Total Time(Profiler) 1.0685 | Copy Time 1.0592
[Train  Worker 2/3] Started with PID 181033(Tesla V100-SXM2-16GB)
[Train  Worker 2] run train for 4 epochs with 141 steps
[Train  Worker 2] Avg Epoch Time 2.1328 | Train Total Time(Profiler) 1.0671 | Copy Time 1.0599
[Train  Worker 0/3] Started with PID 181030(Tesla V100-SXM2-16GB)
[Train  Worker 0] run train for 4 epochs with 141 steps
Epoch 00000 | Epoch Time 3.8110 | Total Train Time(Profiler) 2.7148 | Copy Time 1.0892
Epoch 00001 | Epoch Time 2.1302 | Total Train Time(Profiler) 1.0649 | Copy Time 1.0593
Epoch 00002 | Epoch Time 2.1284 | Total Train Time(Profiler) 1.0593 | Copy Time 1.0619
Epoch 00003 | Epoch Time 2.1394 | Total Train Time(Profiler) 1.0574 | Copy Time 1.0753
[Train  Worker 0] Avg Epoch Time 2.1327 | Train Total Time(Profiler) 1.0606 | Copy Time 1.0655
    [Step(average) Profiler Level 1 E3 S140]
        L1  sample           0.004708 | send           0.001233
        L1  recv             0.000000 | copy           0.000000 | convert time 0.000000 | train  0.000000
        L1  feature nbytes 0.00 Bytes | label nbytes 0.00 Bytes
        L1  id nbytes      0.00 Bytes | graph nbytes 0.00 Bytes
        L1  miss nbytes    0.00 Bytes | remote nbytes 0.00 Bytes
        L1  num nodes         1052412 | num samples     1459909
    [Step(average) Profiler Level 2 E3 S140]
        L2  shuffle     0.000273 | core sample  0.001507 | id remap        0.002832
        L2  graph copy  0.000000 | id copy      0.000000 | cache feat copy 0.000000
        L2  last layer sample time 0.000292 | size 65740.680851
    [Step(average) Profiler Level 3 E3 S140]
        L3  khop sample coo  0.001221 | khop sort coo      0.000000 | khop count edge     0.000036 | khop compact edge 0.000211
        L3  walk sample coo  0.000000 | walk topk total    0.000000 | walk topk step1     0.000000 | walk topk step2   0.000000
        L3  walk topk step3  0.000000 | walk topk step4    0.000000 | walk topk step5     0.000000
        L3  walk topk step6  0.000000 | walk topk step7    0.000000
        L3  remap unique     0.000000 | remap populate     0.002382 | remap mapnode       0.000000 | remap mapedge     0.000450
        L3  cache get_index  0.000000 | cache copy_index   0.000000 | cache extract_miss  0.000000
        L3  cache copy_miss  0.000000 | cache combine_miss 0.000000 | cache combine cache 0.000000 | cache combine remote 0.000000
        L3  label extract  0.000000
    [Init Profiler Level 1]
        L1  init     5.6268 | sampler init    12.4099 | trainer init 0.0000
    [Init Profiler Level 2]
        L2  load ds         8.8346 | init queue           3.0873
        L2  presample       4.3680 | build interal ds     1.7435
        L2  build cache     0.0000
    [Init Profiler Level 3]
        L3  load dataset: mmap     5.6230 | copy         3.2116
        L3  dist queue: alloc      0.0017 | pin          3.0856 | push     0.0000
        L3  presample: init        0.6460
        L3  presample: sample      1.3222 | copy         0.0950
        L3  presample: count       0.9920 | sort         0.5331
        L3  presample: reset       0.0006 | get rank     0.0739
        L3  internal: cuda ctx     1.4979 | cuda stream     0.2412
[Sample Worker 0/1] Started with PID 181029(Tesla V100-SXM2-16GB)
[Sample Worker 0] run sample for 4 epochs with 141 steps
[Sample Worker 0] Avg Sample Total Time 0.8390 | Sampler Total Time(Profiler) 0.8377
test_result:sample_time=0.6638
test_result:get_cache_miss_index_time=0.0000
test_result:enqueue_samples_time=0.1739
test_result:epoch_time:sample_total=0.8390
[CUDA] cuda0: usage: 12.90 GB
[SAM] cuda0 data alloc        : 0.00 Bytes
[SAM] cuda0 workspace         : 3.34 GB
[SAM] cuda0 workspace reserve : 1.66 GB
[SAM] cuda0 total             : 3.34 GB
    [Step(average) Profiler Level 1 E3 S140]
        L1  sample           0.000000 | send           0.000000
        L1  recv             0.001418 | copy           0.022587 | convert time 0.000481 | train  0.022188
        L1  feature nbytes    1.51 GB | label nbytes   62.50 KB
        L1  id nbytes      0.00 Bytes | graph nbytes 0.00 Bytes
        L1  miss nbytes     232.88 MB | remote nbytes  872.60 MB
        L1  num nodes               0 | num samples           0
    [Step(average) Profiler Level 2 E3 S140]
        L2  shuffle     0.000000 | core sample  0.000000 | id remap        0.000000
        L2  graph copy  0.000004 | id copy      0.000000 | cache feat copy 0.021165
        L2  last layer sample time 0.000000 | size 0.000000
    [Step(average) Profiler Level 3 E3 S140]
        L3  khop sample coo  0.000000 | khop sort coo      0.000000 | khop count edge     0.000000 | khop compact edge 0.000000
        L3  walk sample coo  0.000000 | walk topk total    0.000000 | walk topk step1     0.000000 | walk topk step2   0.000000
        L3  walk topk step3  0.000000 | walk topk step4    0.000000 | walk topk step5     0.000000
        L3  walk topk step6  0.000000 | walk topk step7    0.000000
        L3  remap unique     0.000000 | remap populate     0.000000 | remap mapnode       0.000000 | remap mapedge     0.000000
        L3  cache get_index  0.000681 | cache copy_index   0.000000 | cache extract_miss  0.000000
        L3  cache copy_miss  0.000000 | cache combine_miss 0.020291 | cache combine cache 0.001452 | cache combine remote 0.011816
        L3  label extract  0.000179
    [Init Profiler Level 1]
        L1  init     5.6268 | sampler init     0.0000 | trainer init 74.1333
    [Init Profiler Level 2]
        L2  load ds         5.6230 | init queue           3.0324
        L2  presample       0.0000 | build interal ds     1.4833
        L2  build cache    69.6132
    [Init Profiler Level 3]
        L3  load dataset: mmap     5.6230 | copy         0.0000
        L3  dist queue: alloc      0.0017 | pin          3.0307 | push     0.0000
        L3  presample: init        0.0000
        L3  presample: sample      0.0000 | copy         0.0000
        L3  presample: count       0.0000 | sort         0.0000
        L3  presample: reset       0.0000 | get rank     0.0000
        L3  internal: cuda ctx     1.4832 | cuda stream     0.0001
|===========================================================================|
|                  PyTorch CUDA memory summary, device ID 0                 |
|---------------------------------------------------------------------------|
|            CUDA OOMs: 0            |        cudaMalloc retries: 0         |
|===========================================================================|
|        Metric         | Cur Usage  | Peak Usage | Tot Alloc  | Tot Freed  |
|---------------------------------------------------------------------------|
| Allocated memory      |   42247 KB |  730563 KB |  400947 MB |  400906 MB |
|       from large pool |   32612 KB |  727530 KB |  398138 MB |  398106 MB |
|       from small pool |    9635 KB |   11959 KB |    2809 MB |    2799 MB |
|---------------------------------------------------------------------------|
| Active memory         |   42247 KB |  730563 KB |  400947 MB |  400906 MB |
|       from large pool |   32612 KB |  727530 KB |  398138 MB |  398106 MB |
|       from small pool |    9635 KB |   11959 KB |    2809 MB |    2799 MB |
|---------------------------------------------------------------------------|
| GPU reserved memory   |     882 MB |     882 MB |     882 MB |       0 B  |
|       from large pool |     866 MB |     866 MB |     866 MB |       0 B  |
|       from small pool |      16 MB |      16 MB |      16 MB |       0 B  |
|---------------------------------------------------------------------------|
| Non-releasable memory |   76536 KB |  645895 KB |  298451 MB |  298377 MB |
|       from large pool |   73884 KB |  640967 KB |  295488 MB |  295415 MB |
|       from small pool |    2652 KB |    5986 KB |    2963 MB |    2961 MB |
|---------------------------------------------------------------------------|
| Allocations           |      42    |      57    |   22597    |   22555    |
|       from large pool |       7    |      18    |    9779    |    9772    |
|       from small pool |      35    |      41    |   12818    |   12783    |
|---------------------------------------------------------------------------|
| Active allocs         |      43    |      57    |   22597    |   22554    |
|       from large pool |       7    |      18    |    9779    |    9772    |
|       from small pool |      36    |      41    |   12818    |   12782    |
|---------------------------------------------------------------------------|
| GPU reserved segments |      18    |      18    |      18    |       0    |
|       from large pool |      10    |      10    |      10    |       0    |
|       from small pool |       8    |       8    |       8    |       0    |
|---------------------------------------------------------------------------|
| Non-releasable allocs |      18    |      30    |   10588    |   10570    |
|       from large pool |       4    |      14    |    6349    |    6345    |
|       from small pool |      14    |      21    |    4239    |    4225    |
|---------------------------------------------------------------------------|
| Oversize allocations  |       0    |       0    |       0    |       0    |
|---------------------------------------------------------------------------|
| Oversize GPU segments |       0    |       0    |       0    |       0    |
|===========================================================================|

test_result:epoch_time:copy_time=1.0655
test_result:convert_time=0.0245
test_result:train_time=1.0361
test_result:epoch_time:train_total=1.0606
test_result:cache_percentage=0.0100
test_result:cache_hit_rate=1.0000
test_result:run_time=13.5772
